(set-info :smt-lib-version 2.6)
(set-logic QF_UFLIA)
(set-info :source | MathSat group |)
(set-info :category "crafted")
(set-info :status sat)
(declare-fun hash_1 (Int) Int)
(declare-fun hash_2 (Int) Int)
(declare-fun hash_3 (Int) Int)
(declare-fun hash_4 (Int) Int)
(declare-fun hash_5 (Int) Int)
(declare-fun hash_6 (Int) Int)
(declare-fun hash_7 (Int) Int)
(declare-fun hash_8 (Int) Int)
(declare-fun hash_9 (Int) Int)
(declare-fun hash_10 (Int) Int)
(declare-fun hash_11 (Int) Int)
(declare-fun hash_12 (Int) Int)
(declare-fun hash_13 (Int) Int)
(declare-fun hash_14 (Int) Int)
(declare-fun hash_15 (Int) Int)
(declare-fun hash_16 (Int) Int)
(declare-fun hash_17 (Int) Int)
(declare-fun x1 () Int)
(declare-fun x2 () Int)
(declare-fun x3 () Int)
(assert (let ((?v_0 (hash_1 x1)) (?v_1 (hash_1 x2)) (?v_2 (hash_1 x3)) (?v_3 (hash_2 x1)) (?v_4 (hash_2 x2)) (?v_5 (hash_2 x3)) (?v_6 (hash_3 x1)) (?v_7 (hash_3 x2)) (?v_8 (hash_3 x3)) (?v_9 (hash_4 x1)) (?v_10 (hash_4 x2)) (?v_11 (hash_4 x3)) (?v_12 (hash_5 x1)) (?v_13 (hash_5 x2)) (?v_14 (hash_5 x3)) (?v_15 (hash_6 x1)) (?v_16 (hash_6 x2)) (?v_17 (hash_6 x3)) (?v_18 (hash_7 x1)) (?v_19 (hash_7 x2)) (?v_20 (hash_7 x3)) (?v_21 (hash_8 x1)) (?v_22 (hash_8 x2)) (?v_23 (hash_8 x3)) (?v_24 (hash_9 x1)) (?v_25 (hash_9 x2)) (?v_26 (hash_9 x3)) (?v_27 (hash_10 x1)) (?v_28 (hash_10 x2)) (?v_29 (hash_10 x3)) (?v_30 (hash_11 x1)) (?v_31 (hash_11 x2)) (?v_32 (hash_11 x3)) (?v_33 (hash_12 x1)) (?v_34 (hash_12 x2)) (?v_35 (hash_12 x3)) (?v_36 (hash_13 x1)) (?v_37 (hash_13 x2)) (?v_38 (hash_13 x3)) (?v_39 (hash_14 x1)) (?v_40 (hash_14 x2)) (?v_41 (hash_14 x3)) (?v_42 (hash_15 x1)) (?v_43 (hash_15 x2)) (?v_44 (hash_15 x3)) (?v_45 (hash_16 x1)) (?v_46 (hash_16 x2)) (?v_47 (hash_16 x3)) (?v_48 (hash_17 x1)) (?v_49 (hash_17 x2)) (?v_50 (hash_17 x3)) (?v_51 (+ x1 x3)) (?v_52 (+ x1 x2))) (and (and (and (and (and (and (and (and (and (and (and (and (and (and (and (and (and (and (and (and (and (and (and (and (and (and (and (and (and (and (and (and (and (and (and (and (and (and (and (and (and (and (and (and (and (and (and (and (and (and (and (and (and (and (and (and (and (and (and (and (and (and (and (and (and (and (and (and (and (and (and (and (and (and (and (and (and (and (and (and (and (and (and (and (and (and (and (and (and (and (and (and (and (and (and (and (and (and (and (and (and (and (and (and (and (and (and (and (and (and (and (distinct ?v_0 ?v_1) (distinct ?v_0 ?v_2)) (distinct ?v_1 ?v_2)) (distinct ?v_3 ?v_4)) (distinct ?v_3 ?v_5)) (distinct ?v_4 ?v_5)) (distinct ?v_6 ?v_7)) (distinct ?v_6 ?v_8)) (distinct ?v_7 ?v_8)) (distinct ?v_9 ?v_10)) (distinct ?v_9 ?v_11)) (distinct ?v_10 ?v_11)) (distinct ?v_12 ?v_13)) (distinct ?v_12 ?v_14)) (distinct ?v_13 ?v_14)) (distinct ?v_15 ?v_16)) (distinct ?v_15 ?v_17)) (distinct ?v_16 ?v_17)) (distinct ?v_18 ?v_19)) (distinct ?v_18 ?v_20)) (distinct ?v_19 ?v_20)) (distinct ?v_21 ?v_22)) (distinct ?v_21 ?v_23)) (distinct ?v_22 ?v_23)) (distinct ?v_24 ?v_25)) (distinct ?v_24 ?v_26)) (distinct ?v_25 ?v_26)) (distinct ?v_27 ?v_28)) (distinct ?v_27 ?v_29)) (distinct ?v_28 ?v_29)) (distinct ?v_30 ?v_31)) (distinct ?v_30 ?v_32)) (distinct ?v_31 ?v_32)) (distinct ?v_33 ?v_34)) (distinct ?v_33 ?v_35)) (distinct ?v_34 ?v_35)) (distinct ?v_36 ?v_37)) (distinct ?v_36 ?v_38)) (distinct ?v_37 ?v_38)) (distinct ?v_39 ?v_40)) (distinct ?v_39 ?v_41)) (distinct ?v_40 ?v_41)) (distinct ?v_42 ?v_43)) (distinct ?v_42 ?v_44)) (distinct ?v_43 ?v_44)) (distinct ?v_45 ?v_46)) (distinct ?v_45 ?v_47)) (distinct ?v_46 ?v_47)) (distinct ?v_48 ?v_49)) (distinct ?v_48 ?v_50)) (distinct ?v_49 ?v_50)) (or (or (= ?v_0 x1) (= ?v_0 x2)) (= ?v_0 x3))) (or (or (= ?v_1 x1) (= ?v_1 x2)) (= ?v_1 x3))) (or (or (= ?v_2 x1) (= ?v_2 x2)) (= ?v_2 x3))) (or (or (= ?v_3 x1) (= ?v_3 x2)) (= ?v_3 x3))) (or (or (= ?v_4 x1) (= ?v_4 x2)) (= ?v_4 x3))) (or (or (= ?v_5 x1) (= ?v_5 x2)) (= ?v_5 x3))) (or (or (= ?v_6 x1) (= ?v_6 x2)) (= ?v_6 x3))) (or (or (= ?v_7 x1) (= ?v_7 x2)) (= ?v_7 x3))) (or (or (= ?v_8 x1) (= ?v_8 x2)) (= ?v_8 x3))) (or (or (= ?v_9 x1) (= ?v_9 x2)) (= ?v_9 x3))) (or (or (= ?v_10 x1) (= ?v_10 x2)) (= ?v_10 x3))) (or (or (= ?v_11 x1) (= ?v_11 x2)) (= ?v_11 x3))) (or (or (= ?v_12 x1) (= ?v_12 x2)) (= ?v_12 x3))) (or (or (= ?v_13 x1) (= ?v_13 x2)) (= ?v_13 x3))) (or (or (= ?v_14 x1) (= ?v_14 x2)) (= ?v_14 x3))) (or (or (= ?v_15 x1) (= ?v_15 x2)) (= ?v_15 x3))) (or (or (= ?v_16 x1) (= ?v_16 x2)) (= ?v_16 x3))) (or (or (= ?v_17 x1) (= ?v_17 x2)) (= ?v_17 x3))) (or (or (= ?v_18 x1) (= ?v_18 x2)) (= ?v_18 x3))) (or (or (= ?v_19 x1) (= ?v_19 x2)) (= ?v_19 x3))) (or (or (= ?v_20 x1) (= ?v_20 x2)) (= ?v_20 x3))) (or (or (= ?v_21 x1) (= ?v_21 x2)) (= ?v_21 x3))) (or (or (= ?v_22 x1) (= ?v_22 x2)) (= ?v_22 x3))) (or (or (= ?v_23 x1) (= ?v_23 x2)) (= ?v_23 x3))) (or (or (= ?v_24 x1) (= ?v_24 x2)) (= ?v_24 x3))) (or (or (= ?v_25 x1) (= ?v_25 x2)) (= ?v_25 x3))) (or (or (= ?v_26 x1) (= ?v_26 x2)) (= ?v_26 x3))) (or (or (= ?v_27 x1) (= ?v_27 x2)) (= ?v_27 x3))) (or (or (= ?v_28 x1) (= ?v_28 x2)) (= ?v_28 x3))) (or (or (= ?v_29 x1) (= ?v_29 x2)) (= ?v_29 x3))) (or (or (= ?v_30 x1) (= ?v_30 x2)) (= ?v_30 x3))) (or (or (= ?v_31 x1) (= ?v_31 x2)) (= ?v_31 x3))) (or (or (= ?v_32 x1) (= ?v_32 x2)) (= ?v_32 x3))) (or (or (= ?v_33 x1) (= ?v_33 x2)) (= ?v_33 x3))) (or (or (= ?v_34 x1) (= ?v_34 x2)) (= ?v_34 x3))) (or (or (= ?v_35 x1) (= ?v_35 x2)) (= ?v_35 x3))) (or (or (= ?v_36 x1) (= ?v_36 x2)) (= ?v_36 x3))) (or (or (= ?v_37 x1) (= ?v_37 x2)) (= ?v_37 x3))) (or (or (= ?v_38 x1) (= ?v_38 x2)) (= ?v_38 x3))) (or (or (= ?v_39 x1) (= ?v_39 x2)) (= ?v_39 x3))) (or (or (= ?v_40 x1) (= ?v_40 x2)) (= ?v_40 x3))) (or (or (= ?v_41 x1) (= ?v_41 x2)) (= ?v_41 x3))) (or (or (= ?v_42 x1) (= ?v_42 x2)) (= ?v_42 x3))) (or (or (= ?v_43 x1) (= ?v_43 x2)) (= ?v_43 x3))) (or (or (= ?v_44 x1) (= ?v_44 x2)) (= ?v_44 x3))) (or (or (= ?v_45 x1) (= ?v_45 x2)) (= ?v_45 x3))) (or (or (= ?v_46 x1) (= ?v_46 x2)) (= ?v_46 x3))) (or (or (= ?v_47 x1) (= ?v_47 x2)) (= ?v_47 x3))) (or (or (= ?v_48 x1) (= ?v_48 x2)) (= ?v_48 x3))) (or (or (= ?v_49 x1) (= ?v_49 x2)) (= ?v_49 x3))) (or (or (= ?v_50 x1) (= ?v_50 x2)) (= ?v_50 x3))) (distinct x1 x2)) (distinct x1 x3)) (distinct x2 x3)) (<= 0 x1)) (< x1 4)) (<= 0 x2)) (< x2 4)) (<= 0 x3)) (< x3 4)) (= (hash_1 (hash_1 (hash_17 (ite (< ?v_51 4) ?v_51 x1)))) (hash_1 (hash_1 (hash_17 (ite (< ?v_52 4) ?v_52 x1))))))))
(check-sat)
(exit)
